experiments/sat_smt/run/sat-r/results/mary.res
solved=true
solvingTime=4.757807254791259765625
nActions=10