experiments/sat_smt/run/sat-r/results/mary.out
Timesteps: 1
s UNSATISFIABLE
real 0.07
user 0.00
sys 0.00
Timesteps: 2
s UNSATISFIABLE
real 0.12
user 0.01
sys 0.00
Timesteps: 3
s UNSATISFIABLE
real 0.12
user 0.03
sys 0.00
Timesteps: 4
s UNSATISFIABLE
real 0.14
user 0.06
sys 0.00
Timesteps: 5
s UNSATISFIABLE
real 0.17
user 0.10
sys 0.00
Timesteps: 6
s UNSATISFIABLE
real 0.24
user 0.18
sys 0.00
Timesteps: 7
s UNSATISFIABLE
real 0.54
user 0.45
sys 0.00
Timesteps: 8
s UNSATISFIABLE
real 1.06
user 0.97
sys 0.01
Timesteps: 9
s UNSATISFIABLE
real 1.14
user 1.04
sys 0.01
Timesteps: 10
s SATISFIABLE
real 0.92
user 0.82
sys 0.01
